c description: Tseitin formula on Random 5-regular graph of 30 vertices, with odd charge
c generator: CNFgen (0.9.0)
c copyright: (C) 2012-2020 Massimo Lauria <massimo.lauria@uniroma1.it>
c url: https://massimolauria.net/cnfgen
c random seed: 1
c command line: cnfgen --seed 1 tseitin randomodd gnd 30 5
c
p cnf 75 480
1 2 3 4 -5 0
1 2 3 -4 5 0
1 2 -3 4 5 0
1 2 -3 -4 -5 0
1 -2 3 4 5 0
1 -2 3 -4 -5 0
1 -2 -3 4 -5 0
1 -2 -3 -4 5 0
-1 2 3 4 5 0
-1 2 3 -4 -5 0
-1 2 -3 4 -5 0
-1 2 -3 -4 5 0
-1 -2 3 4 -5 0
-1 -2 3 -4 5 0
-1 -2 -3 4 5 0
-1 -2 -3 -4 -5 0
1 6 7 8 -9 0
1 6 7 -8 9 0
1 6 -7 8 9 0
1 6 -7 -8 -9 0
1 -6 7 8 9 0
1 -6 7 -8 -9 0
1 -6 -7 8 -9 0
1 -6 -7 -8 9 0
-1 6 7 8 9 0
-1 6 7 -8 -9 0
-1 6 -7 8 -9 0
-1 6 -7 -8 9 0
-1 -6 7 8 -9 0
-1 -6 7 -8 9 0
-1 -6 -7 8 9 0
-1 -6 -7 -8 -9 0
10 11 12 13 14 0
10 11 12 -13 -14 0
10 11 -12 13 -14 0
10 11 -12 -13 14 0
10 -11 12 13 -14 0
10 -11 12 -13 14 0
10 -11 -12 13 14 0
10 -11 -12 -13 -14 0
-10 11 12 13 -14 0
-10 11 12 -13 14 0
-10 11 -12 13 14 0
-10 11 -12 -13 -14 0
-10 -11 12 13 14 0
-10 -11 12 -13 -14 0
-10 -11 -12 13 -14 0
-10 -11 -12 -13 14 0
15 16 17 18 -19 0
15 16 17 -18 19 0
15 16 -17 18 19 0
15 16 -17 -18 -19 0
15 -16 17 18 19 0
15 -16 17 -18 -19 0
15 -16 -17 18 -19 0
15 -16 -17 -18 19 0
-15 16 17 18 19 0
-15 16 17 -18 -19 0
-15 16 -17 18 -19 0
-15 16 -17 -18 19 0
-15 -16 17 18 -19 0
-15 -16 17 -18 19 0
-15 -16 -17 18 19 0
-15 -16 -17 -18 -19 0
6 20 21 22 23 0
6 20 21 -22 -23 0
6 20 -21 22 -23 0
6 20 -21 -22 23 0
6 -20 21 22 -23 0
6 -20 21 -22 23 0
6 -20 -21 22 23 0
6 -20 -21 -22 -23 0
-6 20 21 22 -23 0
-6 20 21 -22 23 0
-6 20 -21 22 23 0
-6 20 -21 -22 -23 0
-6 -20 21 22 23 0
-6 -20 21 -22 -23 0
-6 -20 -21 22 -23 0
-6 -20 -21 -22 23 0
24 25 26 27 28 0
24 25 26 -27 -28 0
24 25 -26 27 -28 0
24 25 -26 -27 28 0
24 -25 26 27 -28 0
24 -25 26 -27 28 0
24 -25 -26 27 28 0
24 -25 -26 -27 -28 0
-24 25 26 27 -28 0
-24 25 26 -27 28 0
-24 25 -26 27 28 0
-24 25 -26 -27 -28 0
-24 -25 26 27 28 0
-24 -25 26 -27 -28 0
-24 -25 -26 27 -28 0
-24 -25 -26 -27 28 0
29 30 31 32 33 0
29 30 31 -32 -33 0
29 30 -31 32 -33 0
29 30 -31 -32 33 0
29 -30 31 32 -33 0
29 -30 31 -32 33 0
29 -30 -31 32 33 0
29 -30 -31 -32 -33 0
-29 30 31 32 -33 0
-29 30 31 -32 33 0
-29 30 -31 32 33 0
-29 30 -31 -32 -33 0
-29 -30 31 32 33 0
-29 -30 31 -32 -33 0
-29 -30 -31 32 -33 0
-29 -30 -31 -32 33 0
29 34 35 36 37 0
29 34 35 -36 -37 0
29 34 -35 36 -37 0
29 34 -35 -36 37 0
29 -34 35 36 -37 0
29 -34 35 -36 37 0
29 -34 -35 36 37 0
29 -34 -35 -36 -37 0
-29 34 35 36 -37 0
-29 34 35 -36 37 0
-29 34 -35 36 37 0
-29 34 -35 -36 -37 0
-29 -34 35 36 37 0
-29 -34 35 -36 -37 0
-29 -34 -35 36 -37 0
-29 -34 -35 -36 37 0
38 39 40 41 -42 0
38 39 40 -41 42 0
38 39 -40 41 42 0
38 39 -40 -41 -42 0
38 -39 40 41 42 0
38 -39 40 -41 -42 0
38 -39 -40 41 -42 0
38 -39 -40 -41 42 0
-38 39 40 41 42 0
-38 39 40 -41 -42 0
-38 39 -40 41 -42 0
-38 39 -40 -41 42 0
-38 -39 40 41 -42 0
-38 -39 40 -41 42 0
-38 -39 -40 41 42 0
-38 -39 -40 -41 -42 0
2 30 43 44 -45 0
2 30 43 -44 45 0
2 30 -43 44 45 0
2 30 -43 -44 -45 0
2 -30 43 44 45 0
2 -30 43 -44 -45 0
2 -30 -43 44 -45 0
2 -30 -43 -44 45 0
-2 30 43 44 45 0
-2 30 43 -44 -45 0
-2 30 -43 44 -45 0
-2 30 -43 -44 45 0
-2 -30 43 44 -45 0
-2 -30 43 -44 45 0
-2 -30 -43 44 45 0
-2 -30 -43 -44 -45 0
24 46 47 48 49 0
24 46 47 -48 -49 0
24 46 -47 48 -49 0
24 46 -47 -48 49 0
24 -46 47 48 -49 0
24 -46 47 -48 49 0
24 -46 -47 48 49 0
24 -46 -47 -48 -49 0
-24 46 47 48 -49 0
-24 46 47 -48 49 0
-24 46 -47 48 49 0
-24 46 -47 -48 -49 0
-24 -46 47 48 49 0
-24 -46 47 -48 -49 0
-24 -46 -47 48 -49 0
-24 -46 -47 -48 49 0
3 25 50 51 -52 0
3 25 50 -51 52 0
3 25 -50 51 52 0
3 25 -50 -51 -52 0
3 -25 50 51 52 0
3 -25 50 -51 -52 0
3 -25 -50 51 -52 0
3 -25 -50 -51 52 0
-3 25 50 51 52 0
-3 25 50 -51 -52 0
-3 25 -50 51 -52 0
-3 25 -50 -51 52 0
-3 -25 50 51 -52 0
-3 -25 50 -51 52 0
-3 -25 -50 51 52 0
-3 -25 -50 -51 -52 0
26 53 54 55 56 0
26 53 54 -55 -56 0
26 53 -54 55 -56 0
26 53 -54 -55 56 0
26 -53 54 55 -56 0
26 -53 54 -55 56 0
26 -53 -54 55 56 0
26 -53 -54 -55 -56 0
-26 53 54 55 -56 0
-26 53 54 -55 56 0
-26 53 -54 55 56 0
-26 53 -54 -55 -56 0
-26 -53 54 55 56 0
-26 -53 54 -55 -56 0
-26 -53 -54 55 -56 0
-26 -53 -54 -55 56 0
38 46 50 53 57 0
38 46 50 -53 -57 0
38 46 -50 53 -57 0
38 46 -50 -53 57 0
38 -46 50 53 -57 0
38 -46 50 -53 57 0
38 -46 -50 53 57 0
38 -46 -50 -53 -57 0
-38 46 50 53 -57 0
-38 46 50 -53 57 0
-38 46 -50 53 57 0
-38 46 -50 -53 -57 0
-38 -46 50 53 57 0
-38 -46 50 -53 -57 0
-38 -46 -50 53 -57 0
-38 -46 -50 -53 57 0
10 20 58 59 -60 0
10 20 58 -59 60 0
10 20 -58 59 60 0
10 20 -58 -59 -60 0
10 -20 58 59 60 0
10 -20 58 -59 -60 0
10 -20 -58 59 -60 0
10 -20 -58 -59 60 0
-10 20 58 59 60 0
-10 20 58 -59 -60 0
-10 20 -58 59 -60 0
-10 20 -58 -59 60 0
-10 -20 58 59 -60 0
-10 -20 58 -59 60 0
-10 -20 -58 59 60 0
-10 -20 -58 -59 -60 0
11 31 51 61 62 0
11 31 51 -61 -62 0
11 31 -51 61 -62 0
11 31 -51 -61 62 0
11 -31 51 61 -62 0
11 -31 51 -61 62 0
11 -31 -51 61 62 0
11 -31 -51 -61 -62 0
-11 31 51 61 -62 0
-11 31 51 -61 62 0
-11 31 -51 61 62 0
-11 31 -51 -61 -62 0
-11 -31 51 61 62 0
-11 -31 51 -61 -62 0
-11 -31 -51 61 -62 0
-11 -31 -51 -61 62 0
15 34 39 63 64 0
15 34 39 -63 -64 0
15 34 -39 63 -64 0
15 34 -39 -63 64 0
15 -34 39 63 -64 0
15 -34 39 -63 64 0
15 -34 -39 63 64 0
15 -34 -39 -63 -64 0
-15 34 39 63 -64 0
-15 34 39 -63 64 0
-15 34 -39 63 64 0
-15 34 -39 -63 -64 0
-15 -34 39 63 64 0
-15 -34 39 -63 -64 0
-15 -34 -39 63 -64 0
-15 -34 -39 -63 64 0
16 32 43 58 -65 0
16 32 43 -58 65 0
16 32 -43 58 65 0
16 32 -43 -58 -65 0
16 -32 43 58 65 0
16 -32 43 -58 -65 0
16 -32 -43 58 -65 0
16 -32 -43 -58 65 0
-16 32 43 58 65 0
-16 32 43 -58 -65 0
-16 32 -43 58 -65 0
-16 32 -43 -58 65 0
-16 -32 43 58 -65 0
-16 -32 43 -58 65 0
-16 -32 -43 58 65 0
-16 -32 -43 -58 -65 0
40 59 66 67 -68 0
40 59 66 -67 68 0
40 59 -66 67 68 0
40 59 -66 -67 -68 0
40 -59 66 67 68 0
40 -59 66 -67 -68 0
40 -59 -66 67 -68 0
40 -59 -66 -67 68 0
-40 59 66 67 68 0
-40 59 66 -67 -68 0
-40 59 -66 67 -68 0
-40 59 -66 -67 68 0
-40 -59 66 67 -68 0
-40 -59 66 -67 68 0
-40 -59 -66 67 68 0
-40 -59 -66 -67 -68 0
4 21 35 47 69 0
4 21 35 -47 -69 0
4 21 -35 47 -69 0
4 21 -35 -47 69 0
4 -21 35 47 -69 0
4 -21 35 -47 69 0
4 -21 -35 47 69 0
4 -21 -35 -47 -69 0
-4 21 35 47 -69 0
-4 21 35 -47 69 0
-4 21 -35 47 69 0
-4 21 -35 -47 -69 0
-4 -21 35 47 69 0
-4 -21 35 -47 -69 0
-4 -21 -35 47 -69 0
-4 -21 -35 -47 69 0
22 44 52 61 -70 0
22 44 52 -61 70 0
22 44 -52 61 70 0
22 44 -52 -61 -70 0
22 -44 52 61 70 0
22 -44 52 -61 -70 0
22 -44 -52 61 -70 0
22 -44 -52 -61 70 0
-22 44 52 61 70 0
-22 44 52 -61 -70 0
-22 44 -52 61 -70 0
-22 44 -52 -61 70 0
-22 -44 52 61 -70 0
-22 -44 52 -61 70 0
-22 -44 -52 61 70 0
-22 -44 -52 -61 -70 0
36 54 60 65 -71 0
36 54 60 -65 71 0
36 54 -60 65 71 0
36 54 -60 -65 -71 0
36 -54 60 65 71 0
36 -54 60 -65 -71 0
36 -54 -60 65 -71 0
36 -54 -60 -65 71 0
-36 54 60 65 71 0
-36 54 60 -65 -71 0
-36 54 -60 65 -71 0
-36 54 -60 -65 71 0
-36 -54 60 65 -71 0
-36 -54 60 -65 71 0
-36 -54 -60 65 71 0
-36 -54 -60 -65 -71 0
23 41 45 66 -72 0
23 41 45 -66 72 0
23 41 -45 66 72 0
23 41 -45 -66 -72 0
23 -41 45 66 72 0
23 -41 45 -66 -72 0
23 -41 -45 66 -72 0
23 -41 -45 -66 72 0
-23 41 45 66 72 0
-23 41 45 -66 -72 0
-23 41 -45 66 -72 0
-23 41 -45 -66 72 0
-23 -41 45 66 -72 0
-23 -41 45 -66 72 0
-23 -41 -45 66 72 0
-23 -41 -45 -66 -72 0
7 12 48 73 -74 0
7 12 48 -73 74 0
7 12 -48 73 74 0
7 12 -48 -73 -74 0
7 -12 48 73 74 0
7 -12 48 -73 -74 0
7 -12 -48 73 -74 0
7 -12 -48 -73 74 0
-7 12 48 73 74 0
-7 12 48 -73 -74 0
-7 12 -48 73 -74 0
-7 12 -48 -73 74 0
-7 -12 48 73 -74 0
-7 -12 48 -73 74 0
-7 -12 -48 73 74 0
-7 -12 -48 -73 -74 0
8 37 42 71 73 0
8 37 42 -71 -73 0
8 37 -42 71 -73 0
8 37 -42 -71 73 0
8 -37 42 71 -73 0
8 -37 42 -71 73 0
8 -37 -42 71 73 0
8 -37 -42 -71 -73 0
-8 37 42 71 -73 0
-8 37 42 -71 73 0
-8 37 -42 71 73 0
-8 37 -42 -71 -73 0
-8 -37 42 71 73 0
-8 -37 42 -71 -73 0
-8 -37 -42 71 -73 0
-8 -37 -42 -71 73 0
17 27 57 70 -75 0
17 27 57 -70 75 0
17 27 -57 70 75 0
17 27 -57 -70 -75 0
17 -27 57 70 75 0
17 -27 57 -70 -75 0
17 -27 -57 70 -75 0
17 -27 -57 -70 75 0
-17 27 57 70 75 0
-17 27 57 -70 -75 0
-17 27 -57 70 -75 0
-17 27 -57 -70 75 0
-17 -27 57 70 -75 0
-17 -27 57 -70 75 0
-17 -27 -57 70 75 0
-17 -27 -57 -70 -75 0
5 18 28 72 75 0
5 18 28 -72 -75 0
5 18 -28 72 -75 0
5 18 -28 -72 75 0
5 -18 28 72 -75 0
5 -18 28 -72 75 0
5 -18 -28 72 75 0
5 -18 -28 -72 -75 0
-5 18 28 72 -75 0
-5 18 28 -72 75 0
-5 18 -28 72 75 0
-5 18 -28 -72 -75 0
-5 -18 28 72 75 0
-5 -18 28 -72 -75 0
-5 -18 -28 72 -75 0
-5 -18 -28 -72 75 0
13 55 62 67 -74 0
13 55 62 -67 74 0
13 55 -62 67 74 0
13 55 -62 -67 -74 0
13 -55 62 67 74 0
13 -55 62 -67 -74 0
13 -55 -62 67 -74 0
13 -55 -62 -67 74 0
-13 55 62 67 74 0
-13 55 62 -67 -74 0
-13 55 -62 67 -74 0
-13 55 -62 -67 74 0
-13 -55 62 67 -74 0
-13 -55 62 -67 74 0
-13 -55 -62 67 74 0
-13 -55 -62 -67 -74 0
9 33 49 63 -68 0
9 33 49 -63 68 0
9 33 -49 63 68 0
9 33 -49 -63 -68 0
9 -33 49 63 68 0
9 -33 49 -63 -68 0
9 -33 -49 63 -68 0
9 -33 -49 -63 68 0
-9 33 49 63 68 0
-9 33 49 -63 -68 0
-9 33 -49 63 -68 0
-9 33 -49 -63 68 0
-9 -33 49 63 -68 0
-9 -33 49 -63 68 0
-9 -33 -49 63 68 0
-9 -33 -49 -63 -68 0
14 19 56 64 -69 0
14 19 56 -64 69 0
14 19 -56 64 69 0
14 19 -56 -64 -69 0
14 -19 56 64 69 0
14 -19 56 -64 -69 0
14 -19 -56 64 -69 0
14 -19 -56 -64 69 0
-14 19 56 64 69 0
-14 19 56 -64 -69 0
-14 19 -56 64 -69 0
-14 19 -56 -64 69 0
-14 -19 56 64 -69 0
-14 -19 56 -64 69 0
-14 -19 -56 64 69 0
-14 -19 -56 -64 -69 0
